
Gurobi 10.0.3 (linux64, gurobi_cl) logging started Fri Nov 10 19:40:04 2023

Set parameter Username
Set parameter TimeLimit to value 3600
Set parameter LogFile to value "RCPSP_1714.log"
Set parameter Threads to value 32
Academic license - for non-commercial use only - expires 2024-10-30
Using license file /home/jrivera6/gurobi-licenses/v1003/compute-0-34/gurobi.lic

Gurobi Optimizer version 10.0.3 build v10.0.3rc0 (linux64)
Copyright (c) 2023, Gurobi Optimization, LLC

Read MPS format model from file RCPSP_1714.mps
Reading time = 0.11 seconds
RCPSP_1714: 75251 rows, 29890 columns, 251666 nonzeros

CPU model: Intel(R) Xeon(R) Gold 6130 CPU @ 2.10GHz, instruction set [SSE2|AVX|AVX2|AVX512]
Thread count: 32 physical cores, 32 logical processors, using up to 32 threads

Optimize a model with 75251 rows, 29890 columns and 251666 nonzeros
Model fingerprint: 0xf1d64db7
Variable types: 122 continuous, 29768 integer (29768 binary)
Coefficient statistics:
  Matrix range     [1e+00, 7e+02]
  Objective range  [1e+00, 1e+00]
  Bounds range     [1e+00, 1e+00]
  RHS range        [1e+00, 7e+02]
Presolve removed 11268 rows and 1642 columns (presolve time = 5s) ...
Presolve removed 14115 rows and 2815 columns (presolve time = 10s) ...
Presolve removed 14115 rows and 2815 columns
Presolve time: 10.22s
Presolved: 61136 rows, 27075 columns, 214432 nonzeros
Variable types: 121 continuous, 26954 integer (26954 binary)

Deterministic concurrent LP optimizer: primal and dual simplex (primal and dual model)
Showing first log only...

Root relaxation presolved: 61136 rows, 27075 columns, 214432 nonzeros


Root simplex log...

Iteration    Objective       Primal Inf.    Dual Inf.      Time
       0    1.0412119e+02   7.451910e-03   2.099893e+08     12s
    3842    1.0300000e+02   0.000000e+00   0.000000e+00     14s
Concurrent spin time: 0.65s

Solved with dual simplex (dual model)

Root relaxation: objective 1.030000e+02, 29860 iterations, 3.63 seconds (0.33 work units)
Total elapsed time = 20.06s

    Nodes    |    Current Node    |     Objective Bounds      |     Work
 Expl Unexpl |  Obj  Depth IntInf | Incumbent    BestBd   Gap | It/Node Time

     0     0  103.00000    0  420          -  103.00000      -     -   27s
     0     0  103.00000    0  418          -  103.00000      -     -   27s
     0     0  103.00000    0 1897          -  103.00000      -     -  131s
     0     0  103.00000    0 1871          -  103.00000      -     -  141s
     0     0  103.00000    0 1646          -  103.00000      -     -  143s
     0     0  103.00000    0 1640          -  103.00000      -     -  144s
     0     0  103.00000    0 1701          -  103.00000      -     -  148s
     0     0  103.00000    0  292          -  103.00000      -     -  181s
     0     0  103.00000    0  539          -  103.00000      -     -  186s
     0     0  103.00000    0  535          -  103.00000      -     -  187s
     0     0  103.00000    0  530          -  103.00000      -     -  188s
     0     0  103.00000    0  443          -  103.00000      -     -  216s
     0     0  103.00000    0  746          -  103.00000      -     -  221s
     0     0  103.00000    0  743          -  103.00000      -     -  221s
     0     0  103.00000    0  287          -  103.00000      -     -  253s
     0     0  103.00000    0  969          -  103.00000      -     -  265s
     0     0  103.00000    0  894          -  103.00000      -     -  270s
     0     0  103.00000    0  889          -  103.00000      -     -  272s
     0     0  103.00000    0  889          -  103.00000      -     -  275s
     0     0  103.00000    0  897          -  103.00000      -     -  277s
     0     0  103.00000    0  889          -  103.00000      -     -  277s
     0     0  103.00000    0  333          -  103.00000      -     -  296s
     0     0  103.00000    0  735          -  103.00000      -     -  310s
     0     0  103.09074    0  265          -  103.09074      -     -  332s
     0     0  103.09074    0  768          -  103.09074      -     -  382s
     0     0  103.09074    0  768          -  103.09074      -     -  382s
     0     0  103.09074    0  766          -  103.09074      -     -  382s
     0     0  103.15789    0 1387          -  103.15789      -     -  396s
     0     0  103.15789    0 1141          -  103.15789      -     -  398s
     0     0  103.15789    0 1137          -  103.15789      -     -  398s
     0     0  103.15789    0 1277          -  103.15789      -     -  404s
     0     0  103.15789    0 1236          -  103.15789      -     -  404s
     0     0  103.16609    0 1503          -  103.16609      -     -  419s
     0     0  103.16609    0 1445          -  103.16609      -     -  422s
     0     0  103.16609    0 1426          -  103.16609      -     -  422s
     0     0  103.16609    0 1374          -  103.16609      -     -  427s
     0     0  103.16609    0 1360          -  103.16609      -     -  427s
     0     0  103.16609    0 1373          -  103.16609      -     -  436s
     0     0  103.16609    0 1196          -  103.16609      -     -  437s
     0     0  103.16609    0 1196          -  103.16609      -     -  438s
     0     0  103.16609    0 1194          -  103.16609      -     -  438s
     0     0  103.16609    0 1521          -  103.16609      -     -  443s
     0     0  103.16609    0 1393          -  103.16609      -     -  443s
     0     0  103.16609    0 1389          -  103.16609      -     -  444s
     0     0  103.16609    0  215          -  103.16609      -     -  464s
     0     0  103.17143    0  788          -  103.17143      -     -  468s
     0     0  103.17143    0  763          -  103.17143      -     -  468s
     0     0  103.17143    0  263          -  103.17143      -     -  479s
     0     0  103.17143    0  787          -  103.17143      -     -  481s
     0     0  103.17143    0  785          -  103.17143      -     -  482s
     0     0  103.17143    0 1096          -  103.17143      -     -  490s
     0     0  103.17143    0 1091          -  103.17143      -     -  491s
     0     0  103.17143    0 1089          -  103.17143      -     -  491s
     0     0  103.17143    0 1153          -  103.17143      -     -  495s
     0     0  103.17143    0 1132          -  103.17143      -     -  495s
     0     0  103.17143    0  471          -  103.17143      -     -  515s
     0     0  103.17143    0  468          -  103.17143      -     -  515s
     0     0  103.17143    0 1170          -  103.17143      -     -  520s
     0     0  103.17143    0 1155          -  103.17143      -     -  520s
     0     0  103.17143    0  312          -  103.17143      -     -  535s
     0     0  103.17143    0  250          -  103.17143      -     -  544s
     0     2  103.17143    0  247          -  103.17143      -     -  603s
     1     4  103.53571    1  240          -  103.53571      -  2655  609s
     3     8  104.15385    2  202          -  104.15385      -   904  622s
     7    13  104.50000    3  203          -  104.50000      -   463  651s
    15    24  105.30769    4  703          -  105.00000      -   421  684s
    28    32  106.00000    5  504          -  105.00000      -   745  859s
    52    55  106.00000    6  673          -  105.00000      -   492 1405s
    55    55  109.00000    6 1037          -  105.00000      -   565 1413s
    71    55  111.00000    6 1240          -  105.00000      -   771 1445s
    84    81  106.00000    7  724          -  105.00000      -   889 1533s
    94    81  109.00000    7 1185          -  105.00000      -   921 1540s
   116   105  106.00000    8  607          -  105.00000      -   887 1584s
   148   127  106.00000    9  569          -  105.00000      -   739 1646s
   180   155  106.00000   10  578          -  105.00000      -   631 1695s
   221   178  106.00000   11  572          -  105.00000      -   523 1729s
   257   204  106.00000   12  570          -  105.00000      -   454 1747s
   297   229  106.00000   13  648          -  105.00000      -   399 1765s
   339   259  106.00000   14  620          -  105.00000      -   352 1777s
   383   300  106.00000   15  637          -  105.00000      -   315 1860s
   430   344  106.00000   16  634          -  105.00000      -   283 1890s
   480   401  106.00000   17  668          -  105.00000      -   259 1964s
   540   452  106.00000   18  643          -  105.00000      -   233 1988s
   597   514  106.00000   19  611          -  105.00000      -   213 2013s
   661   574  106.00000   20  613          -  105.00000      -   194 2091s
   723   633  106.00000   22  639          -  105.00000      -   182 2117s
   786   698  106.00000   23  635          -  105.00000      -   169 2185s
   853   754  106.00000   25  629          -  105.00000      -   157 2296s
   915   810  106.00000   27  627          -  105.00000      -   150 2415s
   974   869  106.00000   28  599          -  105.00000      -   144 2466s
  1039   942  106.00000   30  601          -  105.00000      -   139 2516s
  1115  1024  106.00000   33  591          -  105.00000      -   133 2718s
  1206  1074  106.00000   35  807          -  105.00000      -   127 3278s
  1208  1074  106.00000   32 1199          -  105.00000      -   130 3289s
  1257  1152  106.00000   36  771          -  105.00000      -   140 3390s
  1314  1152  112.00000   35 1120          -  105.00000      -   137 3397s
  1342  1242  106.00000   37  697          -  105.00000      -   135 3475s
  1438  1341  106.00000   39  693          -  105.00000      -   129 3587s
  1542  1412  106.00000   41  689          -  105.00000      -   123 3619s

Cutting planes:
  Gomory: 10
  Cover: 139
  Implied bound: 157
  Clique: 11
  MIR: 4824
  StrongCG: 31
  Zero half: 3
  RLT: 1403
  Relax-and-lift: 399
  PSD: 2

Explored 1613 nodes (408439 simplex iterations) in 3672.26 seconds (118.04 work units)
Thread count was 32 (of 32 available processors)

Solution count 0

Time limit reached
Best objective -, best bound 1.050000000000e+02, gap -

Unable to retrieve attribute 'X'

